n = 22;
lu = [|281, 444
      |-277, 191
      |-274, -42
      |73, 131
      |-426, -354
      |298, 310
      |-442, 4
      |215, 263
      |30, 154
      |-309, 166
      |-236, -45
      |-66, 281
      |250, 380
      |-278, 321
      |225, 392
      |-455, 198
      |390, 476
      |-337, -257
      |-352, -263
      |10, 127
      |299, 374
      |-111, -86|];
